p cnf 940
-14 -294
-15 -297
-16 -300
-17 -303
-18 -306
-19 -309
-20 -312
-21 -315
-22 -318
-23 -321
-24 -324
-25 -327
-26 -330
-27 331
-28 332
-29 333
-30 334
-31 335
-32 336
-33 337
-34 338
-35 -15
-35 -16
15 16 35
-36 -17
-36 -18
17 18 36
-37 -19
-37 -20
19 20 37
-38 -21
-38 -22
21 22 38
-39 -23
-39 -24
23 24 39
-40 -25
-40 -26
25 26 40
-41 -27
-41 -28
27 28 41
-42 -29
-42 -30
29 30 42
-43 -31
-43 -32
31 32 43
-44 -33
-44 -34
33 34 44
-45 35
-45 36
-35 -36 45
-46 37
-46 38
-37 -38 46
-47 39
-47 40
-39 -40 47
-48 41
-48 42
-41 -42 48
-49 43
-49 44
-43 -44 49
-50 45
-50 46
-45 -46 50
-51 47
-51 48
-47 -48 51
-52 50
-52 51
-50 -51 52
-53 49
-53 52
-49 -52 53
-54 -14
-54 15
14 -15 54
-55 14
-55 -15
-14 15 55
-56 -54
-56 -55
54 55 56
-57 14
-57 15
-14 -15 57
-58 -14
-58 -56
14 56 58
-59 14
-59 56
-14 -56 59
-60 -58
-60 -59
58 59 60
-61 14
-61 -56
-14 56 61
-62 -57
-62 -61
57 61 62
-63 -15
-63 16
15 -16 63
-64 15
-64 -16
-15 16 64
-65 -63
-65 -64
63 64 65
-66 15
-66 16
-15 -16 66
-67 62
-67 -65
-62 65 67
-68 -62
-68 65
62 -65 68
-69 -67
-69 -68
67 68 69
-70 -62
-70 -65
62 65 70
-71 -66
-71 -70
66 70 71
-72 -16
-72 17
16 -17 72
-73 16
-73 -17
-16 17 73
-74 -72
-74 -73
72 73 74
-75 16
-75 17
-16 -17 75
-76 71
-76 -74
-71 74 76
-77 -71
-77 74
71 -74 77
-78 -76
-78 -77
76 77 78
-79 -71
-79 -74
71 74 79
-80 -75
-80 -79
75 79 80
-81 -17
-81 18
17 -18 81
-82 17
-82 -18
-17 18 82
-83 -81
-83 -82
81 82 83
-84 17
-84 18
-17 -18 84
-85 80
-85 -83
-80 83 85
-86 -80
-86 83
80 -83 86
-87 -85
-87 -86
85 86 87
-88 -80
-88 -83
80 83 88
-89 -84
-89 -88
84 88 89
-90 -18
-90 19
18 -19 90
-91 18
-91 -19
-18 19 91
-92 -90
-92 -91
90 91 92
-93 18
-93 19
-18 -19 93
-94 89
-94 -92
-89 92 94
-95 -89
-95 92
89 -92 95
-96 -94
-96 -95
94 95 96
-97 -89
-97 -92
89 92 97
-98 -93
-98 -97
93 97 98
-99 -19
-99 20
19 -20 99
-100 19
-100 -20
-19 20 100
-101 -99
-101 -100
99 100 101
-102 19
-102 20
-19 -20 102
-103 98
-103 -101
-98 101 103
-104 -98
-104 101
98 -101 104
-105 -103
-105 -104
103 104 105
-106 -98
-106 -101
98 101 106
-107 -102
-107 -106
102 106 107
-108 -20
-108 21
20 -21 108
-109 20
-109 -21
-20 21 109
-110 -108
-110 -109
108 109 110
-111 20
-111 21
-20 -21 111
-112 107
-112 -110
-107 110 112
-113 -107
-113 110
107 -110 113
-114 -112
-114 -113
112 113 114
-115 -107
-115 -110
107 110 115
-116 -111
-116 -115
111 115 116
-117 -21
-117 22
21 -22 117
-118 21
-118 -22
-21 22 118
-119 -117
-119 -118
117 118 119
-120 21
-120 22
-21 -22 120
-121 116
-121 -119
-116 119 121
-122 -116
-122 119
116 -119 122
-123 -121
-123 -122
121 122 123
-124 -116
-124 -119
116 119 124
-125 -120
-125 -124
120 124 125
-126 -22
-126 23
22 -23 126
-127 22
-127 -23
-22 23 127
-128 -126
-128 -127
126 127 128
-129 22
-129 23
-22 -23 129
-130 125
-130 -128
-125 128 130
-131 -125
-131 128
125 -128 131
-132 -130
-132 -131
130 131 132
-133 -125
-133 -128
125 128 133
-134 -129
-134 -133
129 133 134
-135 -23
-135 24
23 -24 135
-136 23
-136 -24
-23 24 136
-137 -135
-137 -136
135 136 137
-138 23
-138 24
-23 -24 138
-139 134
-139 -137
-134 137 139
-140 -134
-140 137
134 -137 140
-141 -139
-141 -140
139 140 141
-142 -134
-142 -137
134 137 142
-143 -138
-143 -142
138 142 143
-144 -24
-144 25
24 -25 144
-145 24
-145 -25
-24 25 145
-146 -144
-146 -145
144 145 146
-147 24
-147 25
-24 -25 147
-148 143
-148 -146
-143 146 148
-149 -143
-149 146
143 -146 149
-150 -148
-150 -149
148 149 150
-151 -143
-151 -146
143 146 151
-152 -147
-152 -151
147 151 152
-153 -25
-153 26
25 -26 153
-154 25
-154 -26
-25 26 154
-155 -153
-155 -154
153 154 155
-156 25
-156 26
-25 -26 156
-157 152
-157 -155
-152 155 157
-158 -152
-158 155
152 -155 158
-159 -157
-159 -158
157 158 159
-160 -152
-160 -155
152 155 160
-161 -156
-161 -160
156 160 161
-162 -26
-162 27
26 -27 162
-163 26
-163 -27
-26 27 163
-164 -162
-164 -163
162 163 164
-165 26
-165 27
-26 -27 165
-166 161
-166 -164
-161 164 166
-167 -161
-167 164
161 -164 167
-168 -166
-168 -167
166 167 168
-169 -161
-169 -164
161 164 169
-170 -165
-170 -169
165 169 170
-171 -27
-171 28
27 -28 171
-172 27
-172 -28
-27 28 172
-173 -171
-173 -172
171 172 173
-174 27
-174 28
-27 -28 174
-175 170
-175 -173
-170 173 175
-176 -170
-176 173
170 -173 176
-177 -175
-177 -176
175 176 177
-178 -170
-178 -173
170 173 178
-179 -174
-179 -178
174 178 179
-180 -28
-180 29
28 -29 180
-181 28
-181 -29
-28 29 181
-182 -180
-182 -181
180 181 182
-183 28
-183 29
-28 -29 183
-184 179
-184 -182
-179 182 184
-185 -179
-185 182
179 -182 185
-186 -184
-186 -185
184 185 186
-187 -179
-187 -182
179 182 187
-188 -183
-188 -187
183 187 188
-189 -29
-189 30
29 -30 189
-190 29
-190 -30
-29 30 190
-191 -189
-191 -190
189 190 191
-192 29
-192 30
-29 -30 192
-193 188
-193 -191
-188 191 193
-194 -188
-194 191
188 -191 194
-195 -193
-195 -194
193 194 195
-196 -188
-196 -191
188 191 196
-197 -192
-197 -196
192 196 197
-198 -30
-198 31
30 -31 198
-199 30
-199 -31
-30 31 199
-200 -198
-200 -199
198 199 200
-201 30
-201 31
-30 -31 201
-202 197
-202 -200
-197 200 202
-203 -197
-203 200
197 -200 203
-204 -202
-204 -203
202 203 204
-205 -197
-205 -200
197 200 205
-206 -201
-206 -205
201 205 206
-207 -31
-207 32
31 -32 207
-208 31
-208 -32
-31 32 208
-209 -207
-209 -208
207 208 209
-210 31
-210 32
-31 -32 210
-211 206
-211 -209
-206 209 211
-212 -206
-212 209
206 -209 212
-213 -211
-213 -212
211 212 213
-214 -206
-214 -209
206 209 214
-215 -210
-215 -214
210 214 215
-216 -32
-216 33
32 -33 216
-217 32
-217 -33
-32 33 217
-218 -216
-218 -217
216 217 218
-219 32
-219 33
-32 -33 219
-220 215
-220 -218
-215 218 220
-221 -215
-221 218
215 -218 221
-222 -220
-222 -221
220 221 222
-223 -215
-223 -218
215 218 223
-224 -219
-224 -223
219 223 224
-225 -33
-225 34
33 -34 225
-226 33
-226 -34
-33 34 226
-227 -225
-227 -226
225 226 227
-228 33
-228 34
-33 -34 228
-229 224
-229 -227
-224 227 229
-230 -224
-230 227
224 -227 230
-231 -229
-231 -230
229 230 231
-232 -224
-232 -227
224 227 232
-233 -228
-233 -232
228 232 233
-234 14
-234 -60
-14 60 234
-235 -14
-235 16
14 -16 235
-236 -234
-236 -235
234 235 236
-237 14
-237 -69
-14 69 237
-238 -14
-238 17
14 -17 238
-239 -237
-239 -238
237 238 239
-240 14
-240 -78
-14 78 240
-241 -14
-241 18
14 -18 241
-242 -240
-242 -241
240 241 242
-243 14
-243 -87
-14 87 243
-244 -14
-244 19
14 -19 244
-245 -243
-245 -244
243 244 245
-246 14
-246 -96
-14 96 246
-247 -14
-247 20
14 -20 247
-248 -246
-248 -247
246 247 248
-249 14
-249 -105
-14 105 249
-250 -14
-250 21
14 -21 250
-251 -249
-251 -250
249 250 251
-252 14
-252 -114
-14 114 252
-253 -14
-253 22
14 -22 253
-254 -252
-254 -253
252 253 254
-255 14
-255 -123
-14 123 255
-256 -14
-256 23
14 -23 256
-257 -255
-257 -256
255 256 257
-258 14
-258 -132
-14 132 258
-259 -14
-259 24
14 -24 259
-260 -258
-260 -259
258 259 260
-261 14
-261 -141
-14 141 261
-262 -14
-262 25
14 -25 262
-263 -261
-263 -262
261 262 263
-264 14
-264 -150
-14 150 264
-265 -14
-265 26
14 -26 265
-266 -264
-266 -265
264 265 266
-267 14
-267 -159
-14 159 267
-268 -14
-268 27
14 -27 268
-269 -267
-269 -268
267 268 269
-270 14
-270 -168
-14 168 270
-271 -14
-271 28
14 -28 271
-272 -270
-272 -271
270 271 272
-273 14
-273 -177
-14 177 273
-274 -14
-274 29
14 -29 274
-275 -273
-275 -274
273 274 275
-276 14
-276 -186
-14 186 276
-277 -14
-277 30
14 -30 277
-278 -276
-278 -277
276 277 278
-279 14
-279 -195
-14 195 279
-280 -14
-280 31
14 -31 280
-281 -279
-281 -280
279 280 281
-282 14
-282 -204
-14 204 282
-283 -14
-283 32
14 -32 283
-284 -282
-284 -283
282 283 284
-285 14
-285 -213
-14 213 285
-286 -14
-286 33
14 -33 286
-287 -285
-287 -286
285 286 287
-288 14
-288 -222
-14 222 288
-289 -14
-289 34
14 -34 289
-290 -288
-290 -289
288 289 290
-291 14
-291 -231
-14 231 291
-292 1
-292 53
-1 -53 292
-293 -53
-293 54
53 -54 293
-294 -292
-294 -293
292 293 294
-295 2
-295 53
-2 -53 295
-296 -53
-296 -236
53 236 296
-297 -295
-297 -296
295 296 297
-298 3
-298 53
-3 -53 298
-299 -53
-299 -239
53 239 299
-300 -298
-300 -299
298 299 300
-301 4
-301 53
-4 -53 301
-302 -53
-302 -242
53 242 302
-303 -301
-303 -302
301 302 303
-304 5
-304 53
-5 -53 304
-305 -53
-305 -245
53 245 305
-306 -304
-306 -305
304 305 306
-307 6
-307 53
-6 -53 307
-308 -53
-308 -248
53 248 308
-309 -307
-309 -308
307 308 309
-310 7
-310 53
-7 -53 310
-311 -53
-311 -251
53 251 311
-312 -310
-312 -311
310 311 312
-313 8
-313 53
-8 -53 313
-314 -53
-314 -254
53 254 314
-315 -313
-315 -314
313 314 315
-316 9
-316 53
-9 -53 316
-317 -53
-317 -257
53 257 317
-318 -316
-318 -317
316 317 318
-319 10
-319 53
-10 -53 319
-320 -53
-320 -260
53 260 320
-321 -319
-321 -320
319 320 321
-322 11
-322 53
-11 -53 322
-323 -53
-323 -263
53 263 323
-324 -322
-324 -323
322 323 324
-325 12
-325 53
-12 -53 325
-326 -53
-326 -266
53 266 326
-327 -325
-327 -326
325 326 327
-328 13
-328 53
-13 -53 328
-329 -53
-329 -269
53 269 329
-330 -328
-330 -329
328 329 330
-331 -53
-331 -272
53 272 331
-332 -53
-332 -275
53 275 332
-333 -53
-333 -278
53 278 333
-334 -53
-334 -281
53 281 334
-335 -53
-335 -284
53 284 335
-336 -53
-336 -287
53 287 336
-337 -53
-337 -290
53 290 337
-338 -53
-338 291
53 -291 338
-339 -34
-339 233
34 -233 339
-340 14
-340 -339
-14 339 340
340
